WARNING: for repeatability, setting FPU to use double precision
 -----------------------------------------------------------------------------------------------------------------------
|                                 manysat2.0    4 thread(s) on 8 core(s)                                                |
 -----------------------------------------------------------------------------------------------------------------------
 ===============================================[ Problem Statistics ]==================================================
|                                                                                                                       |
|  Number of cores:                 4                                                                                   |
|  Number of variables:        779481                                                                                   |
|  Number of clauses:         1351096                                                                                   |
|  Parse time:                   0.86 s                                                                                 |
|                                                                                                                       |
 ==============================================[ Search Statistics ]====================================================
|   Thread  | Conflicts |          ORIGINAL         |          LEARNT          |  exported  / imported      |  Progress |
|    (id)   |           |    Vars  Clauses Literals |    Limit  Clauses Lit/Cl |  (clauses by restart)      |           |
 =======================================================================================================================
|         2 |       100 |  433036  1004643  2459645 |   495401      133      4 |        9995  -          35 | 44.446 %  |
|         3 |       100 |  433036  1004643  2459645 |   495401      275      4 |       13993  -         175 | 44.446 %  |
|         1 |       100 |  433036  1004643  2459645 |   495401      522      4 |        5997  -         418 | 44.446 %  |
|         3 |       250 |  433036  1004639  2459637 |   544942      549      4 |       13993  -         299 | 44.446 %  |
|         0 |       100 |  433036  1004643  2459645 |   368369      779      4 |        5997  -         681 | 44.446 %  |
|         2 |       250 |  433036  1004639  2459637 |   544942      867      4 |        9995  -         619 | 44.446 %  |
|         3 |       475 |  433036  1004639  2459637 |   599436     1242      4 |       13993  -         766 | 44.446 %  |
|         1 |       250 |  433036  1004639  2459637 |   544942     1341      4 |        5997  -        1087 | 44.446 %  |
|         2 |       475 |  433036  1004639  2459637 |   599436     1415      4 |        9995  -         942 | 44.446 %  |
|         2 |       812 |  433036  1004639  2459637 |   659379     1859      4 |        9995  -        1049 | 44.446 %  |
|         3 |       812 |  433036  1004639  2459637 |   659379     2260      4 |       13993  -        1447 | 44.446 %  |
|         1 |       475 |  433036  1004639  2459637 |   599436     2417      4 |        5997  -        1938 | 44.446 %  |
|         3 |      1318 |  433036  1004639  2459637 |   725317     2924      4 |       13993  -        1604 | 44.446 %  |
|         3 |      2077 |  433036  1004639  2459637 |   797849     4085      3 |       13993  -        2006 | 44.446 %  |
|         1 |       812 |  433036  1004639  2459637 |   659379     4151      3 |        5997  -        3334 | 44.446 %  |
|         0 |       250 |  433036  1004639  2459637 |   405206     4148      3 |        5997  -        3900 | 44.446 %  |
|         3 |      3216 |  433036  1004639  2459637 |   877634     5808      3 |       13993  -        2590 | 44.446 %  |
|         1 |      1318 |  433036  1004639  2459637 |   725317     6292      3 |        5997  -        4969 | 44.446 %  |
|         2 |      1318 |  433036  1004639  2459637 |   725317     7324      3 |        9995  -        6008 | 44.446 %  |
|         0 |       475 |  433036  1004639  2459637 |   445726     7995      3 |        5997  -        7522 | 44.446 %  |
|         3 |      4924 |  433036  1004639  2459637 |   965398     8333      3 |       13993  -        3407 | 44.446 %  |
|         0 |       812 |  433036  1004639  2459637 |   490299    10496      3 |        5997  -        9686 | 44.446 %  |
|         2 |      2077 |  433036  1004639  2459637 |   797849    11330      3 |        9995  -        9255 | 44.446 %  |
|         1 |      2077 |  433036  1004639  2459637 |   797849    12798      3 |        5997  -       10716 | 44.446 %  |
|         0 |      1318 |  433036  1004639  2459637 |   539329    13507      3 |        5997  -       12191 | 44.446 %  |
|         3 |      7486 |  433036  1004639  2459637 |  1061937    14338      3 |       13993  -        6850 | 44.446 %  |
|         2 |      3216 |  433036  1004639  2459637 |   877634    14441      3 |        9995  -       11227 | 44.446 %  |
|         0 |      2077 |  433036  1004639  2459637 |   593262    17274      3 |        5997  -       15199 | 44.446 %  |
|         0 |      3216 |  433036  1004639  2459637 |   652588    20259      3 |        5997  -       17045 | 44.446 %  |
|         2 |      4924 |  433036  1004639  2459637 |   965398    20506      3 |        9995  -       15584 | 44.446 %  |
|         0 |      4924 |  433036  1004639  2459637 |   717847    23434      3 |        5997  -       18512 | 44.446 %  |
|         1 |      3216 |  433036  1004639  2459637 |   877634    24526      3 |        5997  -       21305 | 44.446 %  |
|         3 |     11330 |  433036  1004639  2459637 |  1168131    29556      4 |       13993  -       18224 | 44.446 %  |
|         0 |      7486 |  433036  1004639  2459637 |   789631    29907      4 |        5997  -       22423 | 44.446 %  |
|         1 |      4924 |  433036  1004639  2459637 |   965398    31251      4 |        5997  -       26322 | 44.446 %  |
|         2 |      7486 |  433036  1004639  2459637 |  1061937    33134      4 |        9995  -       25650 | 44.446 %  |
|         1 |      7486 |  433036  1004639  2459637 |  1061937    35876      4 |        5997  -       28385 | 44.446 %  |
|         0 |     11330 |  433036  1004639  2459637 |   868595    46125      4 |        5997  -       34797 | 44.446 %  |
|         2 |     11330 |  433036  1004639  2459637 |  1168131    50195      4 |        9995  -       38867 | 44.446 %  |
|         1 |     11330 |  433036  1004639  2459637 |  1168131    51258      4 |        5997  -       39923 | 44.446 %  |
|         3 |     17096 |  433036  1004639  2459637 |  1284944    58788      4 |       13993  -       41690 | 44.446 %  |
|         0 |     17096 |  433036  1004639  2459637 |   955454    60535      4 |        5997  -       43441 | 44.446 %  |
|         2 |     17096 |  433036  1004639  2459637 |  1284944    75836      4 |        9995  -       58742 | 44.446 %  |
|         1 |     17096 |  433036  1004639  2459637 |  1284944    86274      4 |        5997  -       69173 | 44.446 %  |
|         0 |     25745 |  433036  1004639  2459637 |  1051000    86513      4 |        5997  -       60768 | 44.446 %  |
|         3 |     25745 |  433036  1004639  2459637 |  1413439    90761      4 |       13993  -       65009 | 44.446 %  |
|         2 |     25745 |  433036  1004639  2459637 |  1413439   107018      4 |        9995  -       81274 | 44.446 %  |
|         1 |     25745 |  433036  1004639  2459637 |  1413439   119861      4 |        5997  -       94109 | 44.446 %  |
|         0 |     38719 |  433036  1004639  2459637 |  1156100   135504      4 |        5997  -       96785 | 44.446 %  |
|         2 |     38719 |  433036  1004639  2459637 |  1554783   158726      4 |        9995  -      120005 | 44.446 %  |
|         3 |     38719 |  433036  1004639  2459637 |  1554783   164675      4 |       13993  -      125945 | 44.446 %  |
|         0 |     58180 |  433036  1004639  2459637 |  1271710   178556      4 |        5997  -      120375 | 44.446 %  |
|         1 |     38719 |  433033  1004636  2459628 |  1554783   203337      4 |        6000  -      164633 | 44.446 %  |
|         2 |     58180 |  433032  1004635  2459625 |  1710261   240725      4 |        9999  -      182569 | 44.446 %  |
|         1 |     58180 |  433031  1004634  2459622 |  1710261   254444      5 |        6006  -      196285 | 44.446 %  |
|         3 |     58180 |  433030  1004633  2459619 |  1710261   271661      5 |       14003  -      213505 | 44.446 %  |
|         0 |     87372 |  433030  1004633  2459619 |  1398881   276940      5 |        6015  -      189606 | 44.446 %  |
|         1 |     87372 |  433021  1004621  2459589 |  1881287   323164      5 |        6028  -      235910 | 44.448 %  |
|         2 |     87372 |  433020  1004620  2459586 |  1881287   331055      5 |       10029  -      243832 | 44.448 %  |
|         3 |     87372 |  433010  1004607  2459553 |  1881287   382937      5 |       14056  -      295786 | 44.449 %  |
|         2 |    131161 |  432983  1004580  2459478 |  2069416   457606      5 |       10107  -      326935 | 44.452 %  |
|         1 |    131161 |  432978  1004570  2459454 |  2069416   465493      5 |        6117  -      334838 | 44.453 %  |
|         3 |    131161 |  432940  1004530  2459344 |  2069416   521231      5 |       14249  -      390897 | 44.458 %  |
|         0 |    131161 |  432881  1004509  2459287 |  1538769   541143      5 |        6311  -      410912 | 44.465 %  |
|         1 |    196845 |  432604  1004194  2458366 |  2276358   641120      5 |        7072  -      458840 | 44.501 %  |
|         0 |    196845 |  432445  1004013  2457843 |  1692646   690134      5 |        7661  -      515000 | 44.521 %  |
|         2 |    196845 |  432432  1003993  2457785 |  2276358   724067      5 |       11788  -      548096 | 44.523 %  |
|         3 |    196845 |  432209  1003736  2457082 |  2276358   815879      5 |       16452  -      642879 | 44.552 %  |
 =======================================================================================================================
 -----------------------------------------------------------------------------------------------------------------------
| ManySAT 2.2 - all threads statistics           DETERMINISTIC MODE ? N              initial limit export clauses :  10 |
|-----------------------------------------------------------------------------------------------------------------------|
|  Thread  | winner  |   #restarts   |   decisions   |  #conflicts   |   % shared cls  |  #extra units | #extra clauses |         
|----------|---------|---------------|---------------|---------------|-----------------|---------------|----------------|
|        0 |         |           581 |     279866790 |        250784 |           269 % |         13312 |         661606 |
|        1 |         |           638 |     288460618 |        272857 |           241 % |         13355 |         645599 |
|        2 |       x |           526 |     265986163 |        233666 |           299 % |         17341 |         683403 |
|        3 |         |           511 |     246204833 |        212845 |           339 % |         21455 |         700449 |
|----------------------------------------------------|---------------|-----------------|---------------|----------------|
|                                                    |        970152 |           284 % |         65463 |        2691057 |
 -----------------------------------------------------------------------------------------------------------------------
 DETERMINISTIC_MODE? : NO 
 CONTROL POLICY?	 : STATIC (fixed Limit Export Clauses)  
 LIMIT EXPORT CLAUSES (PAIRWISE) : [identity] x 10

  ----------------------------------------         
   winner:  more statistics           
  ----------------------------------------         
  restarts              : 526
  conflicts             : 233666         (132 /sec)
  decisions             : 265986163      (0.00 % random) (150811 /sec)
  propagations          : 2139796647     (1213239 /sec)
  conflict literals     : 1354606        (8.42 % deleted)
  Memory used           : 1032.00 MB
  CPU time              : 1763.71 s

UNSATISFIABLE
